(set-info :origin "Horn problem converted to SMT-LIB2 using Eldarica (https://github.com/uuverifiers/eldarica)")
(set-logic HORN)
(declare-fun INV_MAIN_42 (Int Int Int Int Int Int Int Int Int Int Int Int) Bool)
(assert (forall ((A Int) (B Int) (C Int) (D Int) (E Int) (F Int) (G Int) (H Int) (I Int) (J Int) (K Int) (L Int))(=> (and (and (and (and (and (and (and (not (and (= E A) (not (= I F)))) (not (and (= K A) (not (= L I))))) (not (and (= K E) (not (= L F))))) (= B 1)) (= C 0)) (= G A)) (= H 1)) (= J D)) (INV_MAIN_42 A B C D E F G H I J K L))))
(assert (forall ((A Int) (B Int) (C Int) (D Int) (E Int) (F Int) (G Int) (H Int) (I Int) (J Int) (K Int) (L Int)) (not (and (and (and (and (INV_MAIN_42 A B C D E F G H I J K L) (not (>= (- D B) 1))) (not (>= (- J H) 1))) (not (= L F))) (= K E)))))
(assert (forall ((A Int) (B Int) (C Int) (D Int) (E Int) (F Int) (G Int) (H Int) (I Int) (J Int) (K Int) (L Int) (M Int) (N Int) (O Int) (P Int) (Q Int) (R Int) (S Int) (T Int) (U Int) (V Int) (W Int) (X Int)) (not (and (and (and (and (and (and (and (and (and (and (and (and (and (and (and (and (INV_MAIN_42 A B C D E F G H I J K L) (INV_MAIN_42 M N O P Q R S T U V W X)) (not (and (= (+ Q (- (* (- 4) O) M)) 0) (not (= F R))))) (not (>= (- P N) 1))) (not (>= (- V T) 1))) (not (= F U))) (= A M)) (= B N)) (= C O)) (= D P)) (= (+ E (- (* (- 4) O) M)) 0)) (= G S)) (= H T)) (= I U)) (= J V)) (= K W)) (= L X)))))
(assert (forall ((A Int) (B Int) (C Int) (D Int) (E Int) (F Int) (G Int) (H Int) (I Int) (J Int) (K Int) (L Int) (M Int) (N Int) (O Int) (P Int) (Q Int) (R Int) (S Int) (T Int) (U Int) (V Int) (W Int) (X Int) (Y Int) (Z Int) (A1 Int) (B1 Int) (C1 Int) (D1 Int) (E1 Int) (F1 Int) (G1 Int) (H1 Int) (I1 Int) (J1 Int) (K1 Int) (L1 Int) (M1 Int) (N1 Int) (O1 Int) (P1 Int) (Q1 Int) (R1 Int) (S1 Int) (T1 Int) (U1 Int) (V1 Int) (W1 Int) (X1 Int) (Y1 Int) (Z1 Int) (A2 Int) (B2 Int) (C2 Int) (D2 Int) (E2 Int) (F2 Int) (G2 Int) (H2 Int) (I2 Int) (J2 Int) (K2 Int) (L2 Int) (M2 Int) (N2 Int) (O2 Int) (P2 Int) (Q2 Int) (R2 Int) (S2 Int) (T2 Int) (U2 Int) (V2 Int) (W2 Int) (X2 Int) (Y2 Int) (Z2 Int) (A3 Int) (B3 Int) (C3 Int) (D3 Int) (E3 Int) (F3 Int))(=> (and (and (and (and (and (and (and (and (and (and (and (and (and (and (and (and (and (and (and (and (and (and (and (and (and (and (and (and (and (and (and (and (and (and (and (and (and (and (and (and (and (and (and (and (and (and (and (and (and (and (and (and (and (and (and (and (and (and (and (and (and (and (and (and (and (and (and (and (and (and (and (and (and (and (and (and (and (and (and (and (and (and (INV_MAIN_42 M N O P Q R S T U V W X) (INV_MAIN_42 Y Z A1 B1 C1 D1 E1 F1 G1 H1 I1 J1)) (INV_MAIN_42 K1 L1 M1 N1 O1 P1 Q1 R1 S1 T1 U1 V1)) (INV_MAIN_42 W1 X1 Y1 Z1 A2 B2 C2 D2 E2 F2 G2 H2)) (INV_MAIN_42 I2 J2 K2 L2 M2 N2 O2 P2 Q2 R2 S2 T2)) (INV_MAIN_42 U2 V2 W2 X2 Y2 Z2 A3 B3 C3 D3 E3 F3)) (not (and (= (+ E (- (* (- 4) B) A)) (- 4)) (not (= D1 F))))) (not (and (= (+ E (- (* (- 4) C) A)) 0) (not (= B2 F))))) (not (and (= (+ K (- (* (- 4) H) G)) (- 4)) (not (= L I))))) (not (>= (- B D) 1))) (not (>= (- H J) 1))) (not (>= (- C3 I) 1))) (not (>= D1 B2))) (not (= (- C B) (- 1)))) (= U2 A)) (= (- V2 B) (- 1))) (= W2 C)) (= X2 D)) (= Y2 E)) (= Z2 F)) (= A3 G)) (= (- B3 H) (- 1))) (= D3 J)) (= E3 K)) (= F3 L)) (= I2 A)) (= (- J2 B) (- 1))) (= K2 C)) (= L2 D)) (= M2 E)) (= N2 F)) (= O2 G)) (= (- P2 H) (- 1))) (= Q2 C3)) (= R2 J)) (= (+ S2 (- (* (- 4) H) G)) (- 4))) (= T2 I)) (= W1 A)) (= (- X1 B) (- 1))) (= Y1 C)) (= Z1 D)) (= (+ A2 (- (* (- 4) C) A)) 0)) (= C2 G)) (= (- D2 H) (- 1))) (= E2 C3)) (= F2 J)) (= G2 K)) (= H2 L)) (= K1 A)) (= (- L1 B) (- 1))) (= M1 C)) (= N1 D)) (= (+ O1 (- (* (- 4) C) A)) 0)) (= P1 B2)) (= Q1 G)) (= (- R1 H) (- 1))) (= S1 C3)) (= T1 J)) (= (+ U1 (- (* (- 4) H) G)) (- 4))) (= V1 I)) (= Y A)) (= (- Z B) (- 1))) (= A1 C)) (= B1 D)) (= (+ C1 (- (* (- 4) B) A)) (- 4))) (= E1 G)) (= (- F1 H) (- 1))) (= G1 C3)) (= H1 J)) (= I1 K)) (= J1 L)) (= M A)) (= (- N B) (- 1))) (= O C)) (= P D)) (= (+ Q (- (* (- 4) B) A)) (- 4))) (= R D1)) (= S G)) (= (- T H) (- 1))) (= U C3)) (= V J)) (= (+ W (- (* (- 4) H) G)) (- 4))) (= X I)) (INV_MAIN_42 A B C D E F G H I J K L))))
(assert (forall ((A Int) (B Int) (C Int) (D Int) (E Int) (F Int) (G Int) (H Int) (I Int) (J Int) (K Int) (L Int) (M Int) (N Int) (O Int) (P Int) (Q Int) (R Int) (S Int) (T Int) (U Int) (V Int) (W Int) (X Int) (Y Int) (Z Int) (A1 Int) (B1 Int) (C1 Int) (D1 Int) (E1 Int) (F1 Int) (G1 Int) (H1 Int) (I1 Int) (J1 Int) (K1 Int) (L1 Int) (M1 Int) (N1 Int) (O1 Int) (P1 Int) (Q1 Int) (R1 Int) (S1 Int) (T1 Int) (U1 Int) (V1 Int) (W1 Int) (X1 Int) (Y1 Int) (Z1 Int) (A2 Int) (B2 Int) (C2 Int) (D2 Int) (E2 Int) (F2 Int) (G2 Int) (H2 Int) (I2 Int) (J2 Int) (K2 Int) (L2 Int) (M2 Int) (N2 Int) (O2 Int) (P2 Int) (Q2 Int) (R2 Int) (S2 Int) (T2 Int) (U2 Int) (V2 Int) (W2 Int) (X2 Int) (Y2 Int) (Z2 Int) (A3 Int) (B3 Int) (C3 Int) (D3 Int) (E3 Int) (F3 Int))(=> (and (and (and (and (and (and (and (and (and (and (and (and (and (and (and (and (and (and (and (and (and (and (and (and (and (and (and (and (and (and (and (and (and (and (and (and (and (and (and (and (and (and (and (and (and (and (and (and (and (and (and (and (and (and (and (and (and (and (and (and (and (and (and (and (and (and (and (and (and (and (and (and (and (and (and (and (and (and (and (and (and (and (INV_MAIN_42 M N O P Q R S T U V W X) (INV_MAIN_42 Y Z A1 B1 C1 D1 E1 F1 G1 H1 I1 J1)) (INV_MAIN_42 K1 L1 M1 N1 O1 P1 Q1 R1 S1 T1 U1 V1)) (INV_MAIN_42 W1 X1 Y1 Z1 A2 B2 C2 D2 E2 F2 G2 H2)) (INV_MAIN_42 I2 J2 K2 L2 M2 N2 O2 P2 Q2 R2 S2 T2)) (INV_MAIN_42 U2 V2 W2 X2 Y2 Z2 A3 B3 C3 D3 E3 F3)) (not (and (= (+ E (- (* (- 4) B) A)) (- 4)) (not (= D1 F))))) (not (and (= (+ K (- (* (- 4) H) G)) (- 4)) (not (= L I))))) (not (and (= (- W2 B) (- 1)) (>= (- D1 B2) 1)))) (not (and (= (+ (* 4 W2) (- A E)) 0) (not (= B2 F))))) (not (>= (- B D) 1))) (not (>= (- H J) 1))) (not (>= (- C3 I) 1))) (not (>= (- B2 D1) 1))) (= (- C B) (- 1))) (= U2 A)) (= (- V2 B) (- 1))) (= X2 D)) (= Y2 E)) (= Z2 F)) (= A3 G)) (= (- B3 H) (- 1))) (= D3 J)) (= E3 K)) (= F3 L)) (= I2 A)) (= (- J2 B) (- 1))) (= K2 W2)) (= L2 D)) (= M2 E)) (= N2 F)) (= O2 G)) (= (- P2 H) (- 1))) (= Q2 C3)) (= R2 J)) (= (+ S2 (- (* (- 4) H) G)) (- 4))) (= T2 I)) (= W1 A)) (= (- X1 B) (- 1))) (= Y1 W2)) (= Z1 D)) (= (+ A2 (- (* (- 4) W2) A)) 0)) (= C2 G)) (= (- D2 H) (- 1))) (= E2 C3)) (= F2 J)) (= G2 K)) (= H2 L)) (= K1 A)) (= (- L1 B) (- 1))) (= M1 W2)) (= N1 D)) (= (+ O1 (- (* (- 4) W2) A)) 0)) (= P1 B2)) (= Q1 G)) (= (- R1 H) (- 1))) (= S1 C3)) (= T1 J)) (= (+ U1 (- (* (- 4) H) G)) (- 4))) (= V1 I)) (= Y A)) (= (- Z B) (- 1))) (= A1 W2)) (= B1 D)) (= (+ C1 (- (* (- 4) B) A)) (- 4))) (= E1 G)) (= (- F1 H) (- 1))) (= G1 C3)) (= H1 J)) (= I1 K)) (= J1 L)) (= M A)) (= (- N B) (- 1))) (= O W2)) (= P D)) (= (+ Q (- (* (- 4) B) A)) (- 4))) (= R D1)) (= S G)) (= (- T H) (- 1))) (= U C3)) (= V J)) (= (+ W (- (* (- 4) H) G)) (- 4))) (= X I)) (INV_MAIN_42 A B C D E F G H I J K L))))
(assert (forall ((A Int) (B Int) (C Int) (D Int) (E Int) (F Int) (G Int) (H Int) (I Int) (J Int) (K Int) (L Int) (M Int) (N Int) (O Int) (P Int) (Q Int) (R Int) (S Int) (T Int) (U Int) (V Int) (W Int) (X Int) (Y Int) (Z Int) (A1 Int) (B1 Int) (C1 Int) (D1 Int) (E1 Int) (F1 Int) (G1 Int) (H1 Int) (I1 Int) (J1 Int) (K1 Int) (L1 Int) (M1 Int) (N1 Int) (O1 Int) (P1 Int) (Q1 Int) (R1 Int) (S1 Int) (T1 Int) (U1 Int) (V1 Int) (W1 Int) (X1 Int) (Y1 Int) (Z1 Int) (A2 Int) (B2 Int) (C2 Int) (D2 Int) (E2 Int) (F2 Int) (G2 Int) (H2 Int) (I2 Int) (J2 Int) (K2 Int) (L2 Int) (M2 Int) (N2 Int) (O2 Int) (P2 Int) (Q2 Int) (R2 Int) (S2 Int) (T2 Int) (U2 Int) (V2 Int) (W2 Int) (X2 Int) (Y2 Int) (Z2 Int) (A3 Int) (B3 Int) (C3 Int) (D3 Int) (E3 Int) (F3 Int))(=> (and (and (and (and (and (and (and (and (and (and (and (and (and (and (and (and (and (and (and (and (and (and (and (and (and (and (and (and (and (and (and (and (and (and (and (and (and (and (and (and (and (and (and (and (and (and (and (and (and (and (and (and (and (and (and (and (and (and (and (and (and (and (and (and (and (and (and (and (and (and (and (and (and (and (and (and (and (and (and (and (and (and (INV_MAIN_42 M N O P Q R S T U V W X) (INV_MAIN_42 Y Z A1 B1 C1 D1 E1 F1 G1 H1 I1 J1)) (INV_MAIN_42 K1 L1 M1 N1 O1 P1 Q1 R1 S1 T1 U1 V1)) (INV_MAIN_42 W1 X1 Y1 Z1 A2 B2 C2 D2 E2 F2 G2 H2)) (INV_MAIN_42 I2 J2 K2 L2 M2 N2 O2 P2 Q2 R2 S2 T2)) (INV_MAIN_42 U2 V2 W2 X2 Y2 Z2 A3 B3 C3 D3 E3 F3)) (not (and (= (+ E (- (* (- 4) B) A)) (- 4)) (not (= D1 F))))) (not (and (= (+ E (- (* (- 4) C) A)) 0) (not (= B2 F))))) (not (and (= (+ K (- (* (- 4) H) G)) (- 4)) (not (= T2 L))))) (not (>= (- B D) 1))) (not (>= (- H J) 1))) (not (>= T2 I))) (not (>= D1 B2))) (not (= (- C B) (- 1)))) (= U2 A)) (= (- V2 B) (- 1))) (= W2 C)) (= X2 D)) (= Y2 E)) (= Z2 F)) (= A3 G)) (= (- B3 H) (- 1))) (= C3 I)) (= D3 J)) (= E3 K)) (= F3 L)) (= I2 A)) (= (- J2 B) (- 1))) (= K2 C)) (= L2 D)) (= M2 E)) (= N2 F)) (= O2 G)) (= (- P2 H) (- 1))) (= Q2 I)) (= R2 J)) (= (+ S2 (- (* (- 4) H) G)) (- 4))) (= W1 A)) (= (- X1 B) (- 1))) (= Y1 C)) (= Z1 D)) (= (+ A2 (- (* (- 4) C) A)) 0)) (= C2 G)) (= (- D2 H) (- 1))) (= E2 I)) (= F2 J)) (= G2 K)) (= H2 L)) (= K1 A)) (= (- L1 B) (- 1))) (= M1 C)) (= N1 D)) (= (+ O1 (- (* (- 4) C) A)) 0)) (= P1 B2)) (= Q1 G)) (= (- R1 H) (- 1))) (= S1 I)) (= T1 J)) (= (+ U1 (- (* (- 4) H) G)) (- 4))) (= V1 T2)) (= Y A)) (= (- Z B) (- 1))) (= A1 C)) (= B1 D)) (= (+ C1 (- (* (- 4) B) A)) (- 4))) (= E1 G)) (= (- F1 H) (- 1))) (= G1 I)) (= H1 J)) (= I1 K)) (= J1 L)) (= M A)) (= (- N B) (- 1))) (= O C)) (= P D)) (= (+ Q (- (* (- 4) B) A)) (- 4))) (= R D1)) (= S G)) (= (- T H) (- 1))) (= U I)) (= V J)) (= (+ W (- (* (- 4) H) G)) (- 4))) (= X T2)) (INV_MAIN_42 A B C D E F G H I J K L))))
(assert (forall ((A Int) (B Int) (C Int) (D Int) (E Int) (F Int) (G Int) (H Int) (I Int) (J Int) (K Int) (L Int) (M Int) (N Int) (O Int) (P Int) (Q Int) (R Int) (S Int) (T Int) (U Int) (V Int) (W Int) (X Int) (Y Int) (Z Int) (A1 Int) (B1 Int) (C1 Int) (D1 Int) (E1 Int) (F1 Int) (G1 Int) (H1 Int) (I1 Int) (J1 Int) (K1 Int) (L1 Int) (M1 Int) (N1 Int) (O1 Int) (P1 Int) (Q1 Int) (R1 Int) (S1 Int) (T1 Int) (U1 Int) (V1 Int) (W1 Int) (X1 Int) (Y1 Int) (Z1 Int) (A2 Int) (B2 Int) (C2 Int) (D2 Int) (E2 Int) (F2 Int) (G2 Int) (H2 Int) (I2 Int) (J2 Int) (K2 Int) (L2 Int) (M2 Int) (N2 Int) (O2 Int) (P2 Int) (Q2 Int) (R2 Int) (S2 Int) (T2 Int) (U2 Int) (V2 Int) (W2 Int) (X2 Int) (Y2 Int) (Z2 Int) (A3 Int) (B3 Int) (C3 Int) (D3 Int) (E3 Int) (F3 Int))(=> (and (and (and (and (and (and (and (and (and (and (and (and (and (and (and (and (and (and (and (and (and (and (and (and (and (and (and (and (and (and (and (and (and (and (and (and (and (and (and (and (and (and (and (and (and (and (and (and (and (and (and (and (and (and (and (and (and (and (and (and (and (and (and (and (and (and (and (and (and (and (and (and (and (and (and (and (and (and (and (and (and (and (INV_MAIN_42 M N O P Q R S T U V W X) (INV_MAIN_42 Y Z A1 B1 C1 D1 E1 F1 G1 H1 I1 J1)) (INV_MAIN_42 K1 L1 M1 N1 O1 P1 Q1 R1 S1 T1 U1 V1)) (INV_MAIN_42 W1 X1 Y1 Z1 A2 B2 C2 D2 E2 F2 G2 H2)) (INV_MAIN_42 I2 J2 K2 L2 M2 N2 O2 P2 Q2 R2 S2 T2)) (INV_MAIN_42 U2 V2 W2 X2 Y2 Z2 A3 B3 C3 D3 E3 F3)) (not (and (= (+ E (- (* (- 4) B) A)) (- 4)) (not (= D1 F))))) (not (and (= (+ K (- (* (- 4) H) G)) (- 4)) (not (= T2 L))))) (not (and (= (- W2 B) (- 1)) (>= (- D1 B2) 1)))) (not (and (= (+ (* 4 W2) (- A E)) 0) (not (= B2 F))))) (not (>= (- B D) 1))) (not (>= (- H J) 1))) (not (>= T2 I))) (not (>= (- B2 D1) 1))) (= (- C B) (- 1))) (= U2 A)) (= (- V2 B) (- 1))) (= X2 D)) (= Y2 E)) (= Z2 F)) (= A3 G)) (= (- B3 H) (- 1))) (= C3 I)) (= D3 J)) (= E3 K)) (= F3 L)) (= I2 A)) (= (- J2 B) (- 1))) (= K2 W2)) (= L2 D)) (= M2 E)) (= N2 F)) (= O2 G)) (= (- P2 H) (- 1))) (= Q2 I)) (= R2 J)) (= (+ S2 (- (* (- 4) H) G)) (- 4))) (= W1 A)) (= (- X1 B) (- 1))) (= Y1 W2)) (= Z1 D)) (= (+ A2 (- (* (- 4) W2) A)) 0)) (= C2 G)) (= (- D2 H) (- 1))) (= E2 I)) (= F2 J)) (= G2 K)) (= H2 L)) (= K1 A)) (= (- L1 B) (- 1))) (= M1 W2)) (= N1 D)) (= (+ O1 (- (* (- 4) W2) A)) 0)) (= P1 B2)) (= Q1 G)) (= (- R1 H) (- 1))) (= S1 I)) (= T1 J)) (= (+ U1 (- (* (- 4) H) G)) (- 4))) (= V1 T2)) (= Y A)) (= (- Z B) (- 1))) (= A1 W2)) (= B1 D)) (= (+ C1 (- (* (- 4) B) A)) (- 4))) (= E1 G)) (= (- F1 H) (- 1))) (= G1 I)) (= H1 J)) (= I1 K)) (= J1 L)) (= M A)) (= (- N B) (- 1))) (= O W2)) (= P D)) (= (+ Q (- (* (- 4) B) A)) (- 4))) (= R D1)) (= S G)) (= (- T H) (- 1))) (= U I)) (= V J)) (= (+ W (- (* (- 4) H) G)) (- 4))) (= X T2)) (INV_MAIN_42 A B C D E F G H I J K L))))
(assert (forall ((A Int) (B Int) (C Int) (D Int) (E Int) (F Int) (G Int) (H Int) (I Int) (J Int) (K Int) (L Int) (M Int) (N Int) (O Int) (P Int) (Q Int) (R Int) (S Int) (T Int) (U Int) (V Int) (W Int) (X Int) (Y Int) (Z Int) (A1 Int) (B1 Int) (C1 Int) (D1 Int) (E1 Int) (F1 Int) (G1 Int) (H1 Int) (I1 Int) (J1 Int) (K1 Int) (L1 Int) (M1 Int) (N1 Int) (O1 Int) (P1 Int) (Q1 Int) (R1 Int) (S1 Int) (T1 Int) (U1 Int) (V1 Int) (W1 Int) (X1 Int) (Y1 Int) (Z1 Int) (A2 Int) (B2 Int) (C2 Int) (D2 Int) (E2 Int) (F2 Int) (G2 Int) (H2 Int) (I2 Int) (J2 Int) (K2 Int) (L2 Int) (M2 Int) (N2 Int) (O2 Int) (P2 Int) (Q2 Int) (R2 Int) (S2 Int) (T2 Int) (U2 Int) (V2 Int) (W2 Int) (X2 Int) (Y2 Int) (Z2 Int) (A3 Int) (B3 Int) (C3 Int) (D3 Int) (E3 Int) (F3 Int))(=> (and (and (and (and (and (and (and (and (and (and (and (and (and (and (and (and (and (and (and (and (and (and (and (and (and (and (and (and (and (and (and (and (and (and (and (and (and (and (and (and (and (and (and (and (and (and (and (and (and (and (and (and (and (and (and (and (and (and (and (and (and (and (and (and (and (and (and (and (and (and (and (and (and (and (and (and (and (and (and (and (and (and (INV_MAIN_42 M N O P Q R S T U V W X) (INV_MAIN_42 Y Z A1 B1 C1 D1 E1 F1 G1 H1 I1 J1)) (INV_MAIN_42 K1 L1 M1 N1 O1 P1 Q1 R1 S1 T1 U1 V1)) (INV_MAIN_42 W1 X1 Y1 Z1 A2 B2 C2 D2 E2 F2 G2 H2)) (INV_MAIN_42 I2 J2 K2 L2 M2 N2 O2 P2 Q2 R2 S2 T2)) (INV_MAIN_42 U2 V2 W2 X2 Y2 Z2 A3 B3 C3 D3 E3 F3)) (not (and (= (+ E (- (* (- 4) B) A)) (- 4)) (not (= D1 F))))) (not (and (= (+ K (- (* (- 4) H) G)) 0) (not (= T2 L))))) (not (and (= (- W2 B) (- 1)) (>= (- D1 B2) 1)))) (not (and (= (+ (* 4 W2) (- A E)) 0) (not (= B2 F))))) (not (>= (- B D) 1))) (not (>= (- J H) 1))) (not (>= T2 I))) (not (>= (- B2 D1) 1))) (= (- C B) (- 1))) (= U2 A)) (= (- V2 B) (- 1))) (= X2 D)) (= Y2 E)) (= Z2 F)) (= A3 G)) (= B3 H)) (= C3 I)) (= D3 J)) (= E3 K)) (= F3 L)) (= I2 A)) (= (- J2 B) (- 1))) (= K2 W2)) (= L2 D)) (= M2 E)) (= N2 F)) (= O2 G)) (= P2 H)) (= Q2 I)) (= R2 J)) (= (+ S2 (- (* (- 4) H) G)) 0)) (= W1 A)) (= (- X1 B) (- 1))) (= Y1 W2)) (= Z1 D)) (= (+ A2 (- (* (- 4) W2) A)) 0)) (= C2 G)) (= D2 H)) (= E2 I)) (= F2 J)) (= G2 K)) (= H2 L)) (= K1 A)) (= (- L1 B) (- 1))) (= M1 W2)) (= N1 D)) (= (+ O1 (- (* (- 4) W2) A)) 0)) (= P1 B2)) (= Q1 G)) (= R1 H)) (= S1 I)) (= T1 J)) (= (+ U1 (- (* (- 4) H) G)) 0)) (= V1 T2)) (= Y A)) (= (- Z B) (- 1))) (= A1 W2)) (= B1 D)) (= (+ C1 (- (* (- 4) B) A)) (- 4))) (= E1 G)) (= F1 H)) (= G1 I)) (= H1 J)) (= I1 K)) (= J1 L)) (= M A)) (= (- N B) (- 1))) (= O W2)) (= P D)) (= (+ Q (- (* (- 4) B) A)) (- 4))) (= R D1)) (= S G)) (= T H)) (= U I)) (= V J)) (= (+ W (- (* (- 4) H) G)) 0)) (= X T2)) (INV_MAIN_42 A B C D E F G H I J K L))))
(assert (forall ((A Int) (B Int) (C Int) (D Int) (E Int) (F Int) (G Int) (H Int) (I Int) (J Int) (K Int) (L Int) (M Int) (N Int) (O Int) (P Int) (Q Int) (R Int) (S Int) (T Int) (U Int) (V Int) (W Int) (X Int) (Y Int) (Z Int) (A1 Int) (B1 Int) (C1 Int) (D1 Int) (E1 Int) (F1 Int) (G1 Int) (H1 Int) (I1 Int) (J1 Int) (K1 Int) (L1 Int) (M1 Int) (N1 Int) (O1 Int) (P1 Int) (Q1 Int) (R1 Int) (S1 Int) (T1 Int) (U1 Int) (V1 Int) (W1 Int) (X1 Int) (Y1 Int) (Z1 Int) (A2 Int) (B2 Int) (C2 Int) (D2 Int) (E2 Int) (F2 Int) (G2 Int) (H2 Int) (I2 Int) (J2 Int) (K2 Int) (L2 Int) (M2 Int) (N2 Int) (O2 Int) (P2 Int) (Q2 Int) (R2 Int) (S2 Int) (T2 Int) (U2 Int) (V2 Int) (W2 Int) (X2 Int) (Y2 Int) (Z2 Int) (A3 Int) (B3 Int) (C3 Int) (D3 Int) (E3 Int) (F3 Int))(=> (and (and (and (and (and (and (and (and (and (and (and (and (and (and (and (and (and (and (and (and (and (and (and (and (and (and (and (and (and (and (and (and (and (and (and (and (and (and (and (and (and (and (and (and (and (and (and (and (and (and (and (and (and (and (and (and (and (and (and (and (and (and (and (and (and (and (and (and (and (and (and (and (and (and (and (and (and (and (and (and (and (and (INV_MAIN_42 M N O P Q R S T U V W X) (INV_MAIN_42 Y Z A1 B1 C1 D1 E1 F1 G1 H1 I1 J1)) (INV_MAIN_42 K1 L1 M1 N1 O1 P1 Q1 R1 S1 T1 U1 V1)) (INV_MAIN_42 W1 X1 Y1 Z1 A2 B2 C2 D2 E2 F2 G2 H2)) (INV_MAIN_42 I2 J2 K2 L2 M2 N2 O2 P2 Q2 R2 S2 T2)) (INV_MAIN_42 U2 V2 W2 X2 Y2 Z2 A3 B3 C3 D3 E3 F3)) (not (and (= (+ E (- (* (- 4) B) A)) (- 4)) (not (= D1 F))))) (not (and (= (+ E (- (* (- 4) C) A)) 0) (not (= B2 F))))) (not (and (= (+ K (- (* (- 4) H) G)) 0) (not (= T2 L))))) (not (>= (- B D) 1))) (not (>= (- J H) 1))) (not (>= T2 I))) (not (>= D1 B2))) (not (= (- C B) (- 1)))) (= U2 A)) (= (- V2 B) (- 1))) (= W2 C)) (= X2 D)) (= Y2 E)) (= Z2 F)) (= A3 G)) (= B3 H)) (= C3 I)) (= D3 J)) (= E3 K)) (= F3 L)) (= I2 A)) (= (- J2 B) (- 1))) (= K2 C)) (= L2 D)) (= M2 E)) (= N2 F)) (= O2 G)) (= P2 H)) (= Q2 I)) (= R2 J)) (= (+ S2 (- (* (- 4) H) G)) 0)) (= W1 A)) (= (- X1 B) (- 1))) (= Y1 C)) (= Z1 D)) (= (+ A2 (- (* (- 4) C) A)) 0)) (= C2 G)) (= D2 H)) (= E2 I)) (= F2 J)) (= G2 K)) (= H2 L)) (= K1 A)) (= (- L1 B) (- 1))) (= M1 C)) (= N1 D)) (= (+ O1 (- (* (- 4) C) A)) 0)) (= P1 B2)) (= Q1 G)) (= R1 H)) (= S1 I)) (= T1 J)) (= (+ U1 (- (* (- 4) H) G)) 0)) (= V1 T2)) (= Y A)) (= (- Z B) (- 1))) (= A1 C)) (= B1 D)) (= (+ C1 (- (* (- 4) B) A)) (- 4))) (= E1 G)) (= F1 H)) (= G1 I)) (= H1 J)) (= I1 K)) (= J1 L)) (= M A)) (= (- N B) (- 1))) (= O C)) (= P D)) (= (+ Q (- (* (- 4) B) A)) (- 4))) (= R D1)) (= S G)) (= T H)) (= U I)) (= V J)) (= (+ W (- (* (- 4) H) G)) 0)) (= X T2)) (INV_MAIN_42 A B C D E F G H I J K L))))
(assert (forall ((A Int) (B Int) (C Int) (D Int) (E Int) (F Int) (G Int) (H Int) (I Int) (J Int) (K Int) (L Int) (M Int) (N Int) (O Int) (P Int) (Q Int) (R Int) (S Int) (T Int) (U Int) (V Int) (W Int) (X Int) (Y Int) (Z Int) (A1 Int) (B1 Int) (C1 Int) (D1 Int) (E1 Int) (F1 Int) (G1 Int) (H1 Int) (I1 Int) (J1 Int) (K1 Int) (L1 Int) (M1 Int) (N1 Int) (O1 Int) (P1 Int) (Q1 Int) (R1 Int) (S1 Int) (T1 Int) (U1 Int) (V1 Int))(=> (and (and (and (and (and (and (and (and (and (and (and (and (and (and (and (and (and (and (and (and (and (and (and (and (and (and (and (and (and (and (and (and (and (and (and (and (and (and (and (and (and (and (INV_MAIN_42 M N O P Q R S T U V W X) (INV_MAIN_42 Y Z A1 B1 C1 D1 E1 F1 G1 H1 I1 J1)) (INV_MAIN_42 K1 L1 M1 N1 O1 P1 Q1 R1 S1 T1 U1 V1)) (not (and (= (+ E (- (* (- 4) B) A)) (- 4)) (not (= R F))))) (not (and (= (- M1 B) (- 1)) (>= (- R D1) 1)))) (not (and (= (+ (* 4 M1) (- A E)) 0) (not (= D1 F))))) (not (>= (- B D) 1))) (not (>= (- J H) 1))) (not (>= (- D1 R) 1))) (= (- C B) (- 1))) (= K1 A)) (= (- L1 B) (- 1))) (= N1 D)) (= O1 E)) (= P1 F)) (= Q1 G)) (= R1 H)) (= S1 I)) (= T1 J)) (= U1 K)) (= V1 L)) (= Y A)) (= (- Z B) (- 1))) (= A1 M1)) (= B1 D)) (= (+ C1 (- (* (- 4) M1) A)) 0)) (= E1 G)) (= F1 H)) (= G1 I)) (= H1 J)) (= I1 K)) (= J1 L)) (= M A)) (= (- N B) (- 1))) (= O M1)) (= P D)) (= (+ Q (- (* (- 4) B) A)) (- 4))) (= S G)) (= T H)) (= U I)) (= V J)) (= W K)) (= X L)) (INV_MAIN_42 A B C D E F G H I J K L))))
(assert (forall ((A Int) (B Int) (C Int) (D Int) (E Int) (F Int) (G Int) (H Int) (I Int) (J Int) (K Int) (L Int) (M Int) (N Int) (O Int) (P Int) (Q Int) (R Int) (S Int) (T Int) (U Int) (V Int) (W Int) (X Int) (Y Int) (Z Int) (A1 Int) (B1 Int) (C1 Int) (D1 Int) (E1 Int) (F1 Int) (G1 Int) (H1 Int) (I1 Int) (J1 Int) (K1 Int) (L1 Int) (M1 Int) (N1 Int) (O1 Int) (P1 Int) (Q1 Int) (R1 Int) (S1 Int) (T1 Int) (U1 Int) (V1 Int))(=> (and (and (and (and (and (and (and (and (and (and (and (and (and (and (and (and (and (and (and (and (and (and (and (and (and (and (and (and (and (and (and (and (and (and (and (and (and (and (and (and (and (and (INV_MAIN_42 M N O P Q R S T U V W X) (INV_MAIN_42 Y Z A1 B1 C1 D1 E1 F1 G1 H1 I1 J1)) (INV_MAIN_42 K1 L1 M1 N1 O1 P1 Q1 R1 S1 T1 U1 V1)) (not (and (= (+ E (- (* (- 4) B) A)) (- 4)) (not (= R F))))) (not (and (= (+ E (- (* (- 4) C) A)) 0) (not (= D1 F))))) (not (>= (- B D) 1))) (not (>= (- J H) 1))) (not (>= R D1))) (not (= (- C B) (- 1)))) (= K1 A)) (= (- L1 B) (- 1))) (= M1 C)) (= N1 D)) (= O1 E)) (= P1 F)) (= Q1 G)) (= R1 H)) (= S1 I)) (= T1 J)) (= U1 K)) (= V1 L)) (= Y A)) (= (- Z B) (- 1))) (= A1 C)) (= B1 D)) (= (+ C1 (- (* (- 4) C) A)) 0)) (= E1 G)) (= F1 H)) (= G1 I)) (= H1 J)) (= I1 K)) (= J1 L)) (= M A)) (= (- N B) (- 1))) (= O C)) (= P D)) (= (+ Q (- (* (- 4) B) A)) (- 4))) (= S G)) (= T H)) (= U I)) (= V J)) (= W K)) (= X L)) (INV_MAIN_42 A B C D E F G H I J K L))))
(assert (forall ((A Int) (B Int) (C Int) (D Int) (E Int) (F Int) (G Int) (H Int) (I Int) (J Int) (K Int) (L Int) (M Int) (N Int) (O Int) (P Int) (Q Int) (R Int) (S Int) (T Int) (U Int) (V Int) (W Int) (X Int) (Y Int) (Z Int) (A1 Int) (B1 Int) (C1 Int) (D1 Int) (E1 Int) (F1 Int) (G1 Int) (H1 Int) (I1 Int) (J1 Int) (K1 Int) (L1 Int) (M1 Int) (N1 Int) (O1 Int) (P1 Int) (Q1 Int) (R1 Int) (S1 Int) (T1 Int) (U1 Int) (V1 Int) (W1 Int) (X1 Int) (Y1 Int) (Z1 Int) (A2 Int) (B2 Int) (C2 Int) (D2 Int) (E2 Int) (F2 Int) (G2 Int) (H2 Int) (I2 Int) (J2 Int) (K2 Int) (L2 Int) (M2 Int) (N2 Int) (O2 Int) (P2 Int) (Q2 Int) (R2 Int) (S2 Int) (T2 Int) (U2 Int) (V2 Int) (W2 Int) (X2 Int) (Y2 Int) (Z2 Int) (A3 Int) (B3 Int) (C3 Int) (D3 Int) (E3 Int) (F3 Int))(=> (and (and (and (and (and (and (and (and (and (and (and (and (and (and (and (and (and (and (and (and (and (and (and (and (and (and (and (and (and (and (and (and (and (and (and (and (and (and (and (and (and (and (and (and (and (and (and (and (and (and (and (and (and (and (and (and (and (and (and (and (and (and (and (and (and (and (and (and (and (and (and (and (and (and (and (and (and (and (and (and (and (and (INV_MAIN_42 M N O P Q R S T U V W X) (INV_MAIN_42 Y Z A1 B1 C1 D1 E1 F1 G1 H1 I1 J1)) (INV_MAIN_42 K1 L1 M1 N1 O1 P1 Q1 R1 S1 T1 U1 V1)) (INV_MAIN_42 W1 X1 Y1 Z1 A2 B2 C2 D2 E2 F2 G2 H2)) (INV_MAIN_42 I2 J2 K2 L2 M2 N2 O2 P2 Q2 R2 S2 T2)) (INV_MAIN_42 U2 V2 W2 X2 Y2 Z2 A3 B3 C3 D3 E3 F3)) (not (and (= (+ E (- (* (- 4) B) A)) (- 4)) (not (= D1 F))))) (not (and (= (+ K (- (* (- 4) H) G)) 0) (not (= T2 L))))) (not (and (= (- W2 B) (- 1)) (>= (- D1 B2) 1)))) (not (and (= (+ (* 4 W2) (- A E)) 0) (not (= B2 F))))) (not (>= (- B D) 1))) (not (>= (- J H) 1))) (not (>= (- I T2) 1))) (not (>= (- B2 D1) 1))) (= (- C B) (- 1))) (= U2 A)) (= (- V2 B) (- 1))) (= X2 D)) (= Y2 E)) (= Z2 F)) (= A3 G)) (= B3 H)) (= C3 I)) (= D3 J)) (= E3 K)) (= F3 L)) (= I2 A)) (= (- J2 B) (- 1))) (= K2 W2)) (= L2 D)) (= M2 E)) (= N2 F)) (= O2 G)) (= P2 H)) (= Q2 I)) (= R2 J)) (= (+ S2 (- (* (- 4) H) G)) 0)) (= W1 A)) (= (- X1 B) (- 1))) (= Y1 W2)) (= Z1 D)) (= (+ A2 (- (* (- 4) W2) A)) 0)) (= C2 G)) (= D2 H)) (= E2 I)) (= F2 J)) (= G2 K)) (= H2 L)) (= K1 A)) (= (- L1 B) (- 1))) (= M1 W2)) (= N1 D)) (= (+ O1 (- (* (- 4) W2) A)) 0)) (= P1 B2)) (= Q1 G)) (= R1 H)) (= S1 I)) (= T1 J)) (= (+ U1 (- (* (- 4) H) G)) 0)) (= V1 T2)) (= Y A)) (= (- Z B) (- 1))) (= A1 W2)) (= B1 D)) (= (+ C1 (- (* (- 4) B) A)) (- 4))) (= E1 G)) (= F1 H)) (= G1 I)) (= H1 J)) (= I1 K)) (= J1 L)) (= M A)) (= (- N B) (- 1))) (= O W2)) (= P D)) (= (+ Q (- (* (- 4) B) A)) (- 4))) (= R D1)) (= S G)) (= T H)) (= U I)) (= V J)) (= (+ W (- (* (- 4) H) G)) 0)) (= X T2)) (INV_MAIN_42 A B C D E F G H I J K L))))
(assert (forall ((A Int) (B Int) (C Int) (D Int) (E Int) (F Int) (G Int) (H Int) (I Int) (J Int) (K Int) (L Int) (M Int) (N Int) (O Int) (P Int) (Q Int) (R Int) (S Int) (T Int) (U Int) (V Int) (W Int) (X Int) (Y Int) (Z Int) (A1 Int) (B1 Int) (C1 Int) (D1 Int) (E1 Int) (F1 Int) (G1 Int) (H1 Int) (I1 Int) (J1 Int) (K1 Int) (L1 Int) (M1 Int) (N1 Int) (O1 Int) (P1 Int) (Q1 Int) (R1 Int) (S1 Int) (T1 Int) (U1 Int) (V1 Int) (W1 Int) (X1 Int) (Y1 Int) (Z1 Int) (A2 Int) (B2 Int) (C2 Int) (D2 Int) (E2 Int) (F2 Int) (G2 Int) (H2 Int) (I2 Int) (J2 Int) (K2 Int) (L2 Int) (M2 Int) (N2 Int) (O2 Int) (P2 Int) (Q2 Int) (R2 Int) (S2 Int) (T2 Int) (U2 Int) (V2 Int) (W2 Int) (X2 Int) (Y2 Int) (Z2 Int) (A3 Int) (B3 Int) (C3 Int) (D3 Int) (E3 Int) (F3 Int))(=> (and (and (and (and (and (and (and (and (and (and (and (and (and (and (and (and (and (and (and (and (and (and (and (and (and (and (and (and (and (and (and (and (and (and (and (and (and (and (and (and (and (and (and (and (and (and (and (and (and (and (and (and (and (and (and (and (and (and (and (and (and (and (and (and (and (and (and (and (and (and (and (and (and (and (and (and (and (and (and (and (and (and (INV_MAIN_42 M N O P Q R S T U V W X) (INV_MAIN_42 Y Z A1 B1 C1 D1 E1 F1 G1 H1 I1 J1)) (INV_MAIN_42 K1 L1 M1 N1 O1 P1 Q1 R1 S1 T1 U1 V1)) (INV_MAIN_42 W1 X1 Y1 Z1 A2 B2 C2 D2 E2 F2 G2 H2)) (INV_MAIN_42 I2 J2 K2 L2 M2 N2 O2 P2 Q2 R2 S2 T2)) (INV_MAIN_42 U2 V2 W2 X2 Y2 Z2 A3 B3 C3 D3 E3 F3)) (not (and (= (+ E (- (* (- 4) B) A)) (- 4)) (not (= D1 F))))) (not (and (= (+ E (- (* (- 4) C) A)) 0) (not (= B2 F))))) (not (and (= (+ K (- (* (- 4) H) G)) 0) (not (= T2 L))))) (not (>= (- B D) 1))) (not (>= (- J H) 1))) (not (>= (- I T2) 1))) (not (>= D1 B2))) (not (= (- C B) (- 1)))) (= U2 A)) (= (- V2 B) (- 1))) (= W2 C)) (= X2 D)) (= Y2 E)) (= Z2 F)) (= A3 G)) (= B3 H)) (= C3 I)) (= D3 J)) (= E3 K)) (= F3 L)) (= I2 A)) (= (- J2 B) (- 1))) (= K2 C)) (= L2 D)) (= M2 E)) (= N2 F)) (= O2 G)) (= P2 H)) (= Q2 I)) (= R2 J)) (= (+ S2 (- (* (- 4) H) G)) 0)) (= W1 A)) (= (- X1 B) (- 1))) (= Y1 C)) (= Z1 D)) (= (+ A2 (- (* (- 4) C) A)) 0)) (= C2 G)) (= D2 H)) (= E2 I)) (= F2 J)) (= G2 K)) (= H2 L)) (= K1 A)) (= (- L1 B) (- 1))) (= M1 C)) (= N1 D)) (= (+ O1 (- (* (- 4) C) A)) 0)) (= P1 B2)) (= Q1 G)) (= R1 H)) (= S1 I)) (= T1 J)) (= (+ U1 (- (* (- 4) H) G)) 0)) (= V1 T2)) (= Y A)) (= (- Z B) (- 1))) (= A1 C)) (= B1 D)) (= (+ C1 (- (* (- 4) B) A)) (- 4))) (= E1 G)) (= F1 H)) (= G1 I)) (= H1 J)) (= I1 K)) (= J1 L)) (= M A)) (= (- N B) (- 1))) (= O C)) (= P D)) (= (+ Q (- (* (- 4) B) A)) (- 4))) (= R D1)) (= S G)) (= T H)) (= U I)) (= V J)) (= (+ W (- (* (- 4) H) G)) 0)) (= X T2)) (INV_MAIN_42 A B C D E F G H I J K L))))
(assert (forall ((A Int) (B Int) (C Int) (D Int) (E Int) (F Int) (G Int) (H Int) (I Int) (J Int) (K Int) (L Int) (M Int) (N Int) (O Int) (P Int) (Q Int) (R Int) (S Int) (T Int) (U Int) (V Int) (W Int) (X Int) (Y Int) (Z Int) (A1 Int) (B1 Int) (C1 Int) (D1 Int) (E1 Int) (F1 Int) (G1 Int) (H1 Int) (I1 Int) (J1 Int))(=> (and (and (and (and (and (and (and (and (and (and (and (and (and (and (and (and (and (and (and (and (and (and (and (and (and (and (and (and (INV_MAIN_42 M N O P Q R S T U V W X) (INV_MAIN_42 Y Z A1 B1 C1 D1 E1 F1 G1 H1 I1 J1)) (not (and (= (+ K (- (* (- 4) H) G)) (- 4)) (not (= L I))))) (not (>= (- D B) 1))) (not (>= (- H J) 1))) (not (>= (- G1 I) 1))) (= Y A)) (= Z B)) (= A1 C)) (= B1 D)) (= C1 E)) (= D1 F)) (= E1 G)) (= (- F1 H) (- 1))) (= H1 J)) (= I1 K)) (= J1 L)) (= M A)) (= N B)) (= O C)) (= P D)) (= Q E)) (= R F)) (= S G)) (= (- T H) (- 1))) (= U G1)) (= V J)) (= (+ W (- (* (- 4) H) G)) (- 4))) (= X I)) (INV_MAIN_42 A B C D E F G H I J K L))))
(assert (forall ((A Int) (B Int) (C Int) (D Int) (E Int) (F Int) (G Int) (H Int) (I Int) (J Int) (K Int) (L Int) (M Int) (N Int) (O Int) (P Int) (Q Int) (R Int) (S Int) (T Int) (U Int) (V Int) (W Int) (X Int) (Y Int) (Z Int) (A1 Int) (B1 Int) (C1 Int) (D1 Int) (E1 Int) (F1 Int) (G1 Int) (H1 Int) (I1 Int) (J1 Int))(=> (and (and (and (and (and (and (and (and (and (and (and (and (and (and (and (and (and (and (and (and (and (and (and (and (and (and (and (and (INV_MAIN_42 M N O P Q R S T U V W X) (INV_MAIN_42 Y Z A1 B1 C1 D1 E1 F1 G1 H1 I1 J1)) (not (and (= (+ K (- (* (- 4) H) G)) (- 4)) (not (= X L))))) (not (>= (- D B) 1))) (not (>= (- H J) 1))) (not (>= X I))) (= Y A)) (= Z B)) (= A1 C)) (= B1 D)) (= C1 E)) (= D1 F)) (= E1 G)) (= (- F1 H) (- 1))) (= G1 I)) (= H1 J)) (= I1 K)) (= J1 L)) (= M A)) (= N B)) (= O C)) (= P D)) (= Q E)) (= R F)) (= S G)) (= (- T H) (- 1))) (= U I)) (= V J)) (= (+ W (- (* (- 4) H) G)) (- 4))) (INV_MAIN_42 A B C D E F G H I J K L))))
(check-sat)
